Normalized Data/p03_1_normalized_splitx10_0.vrp
NAME:p03_1_NORMALIZED_splitx10_
BEST_KNOWN: 0
COMMENT: 0
DIMENSION: 379
CAPACITY: 1000
EDGE_WEIGHT_FORMAT: FUNCTION
EDGE_WEIGHT_TYPE: EXACT_2D
NODE_COORD_SECTION
1 0.00000 0.00000
2 -23 -22
3 -23 -22
4 -23 -22
5 -23 -22
6 45 -23
7 45 -23
8 45 -23
9 19 -16
10 19 -16
11 19 -16
12 19 -16
13 19 -16
14 19 -16
15 -46 16
16 -46 16
17 -46 16
18 46 46
19 46 46
20 46 46
21 46 46
22 -46 -47
23 -17 32
24 -17 32
25 -17 32
26 -17 32
27 -17 32
28 -17 32
29 25 -18
30 25 -18
31 13 -6
32 13 -6
33 37 -5
34 37 -5
35 37 -5
36 37 -5
37 37 -5
38 37 -45
39 37 -45
40 37 -45
41 37 -45
42 37 -45
43 37 -45
44 -37 -23
45 -37 -23
46 -37 -23
47 -37 -23
48 -37 -23
49 25 -5
50 25 -5
51 25 -5
52 -14 -40
53 -14 -40
54 -14 -40
55 -14 -40
56 44 4
57 44 4
58 28 -23
59 28 -23
60 28 -23
61 28 -23
62 28 -23
63 -20 -15
64 -20 -15
65 -20 -15
66 -20 -15
67 -20 -15
68 -19 -22
69 -19 -22
70 -19 -22
71 -19 -22
72 -19 -22
73 -35 16
74 -35 16
75 -35 16
76 -35 16
77 30 41
78 30 41
79 30 41
80 30 41
81 30 41
82 35 -46
83 35 -46
84 35 -46
85 35 -46
86 25 -41
87 25 -41
88 25 -41
89 25 -41
90 25 -41
91 3 41
92 3 41
93 3 41
94 -24 10
95 -24 10
96 -24 10
97 -24 10
98 -24 10
99 -24 10
100 6 34
101 6 34
102 6 34
103 6 34
104 6 34
105 -23 -38
106 -23 -38
107 -23 -38
108 13 35
109 13 35
110 13 35
111 13 35
112 43 18
113 43 18
114 43 18
115 5 -45
116 5 -45
117 5 -45
118 -10 -24
119 -10 -24
120 -10 -24
121 -10 -24
122 -10 -24
123 -17 49
124 -17 49
125 -17 49
126 -22 -14
127 -22 -14
128 1 11
129 1 11
130 -21 -14
131 -21 -14
132 -15 -46
133 -15 -46
134 -15 -46
135 -15 -46
136 36 3
137 36 3
138 36 3
139 36 3
140 36 3
141 36 3
142 1 -20
143 1 -20
144 1 -20
145 1 -20
146 1 -20
147 1 -20
148 -5 -39
149 -5 -39
150 -5 -39
151 -5 -39
152 -5 -39
153 -4 6
154 -4 6
155 -4 6
156 -47 -41
157 -47 -41
158 -49 8
159 -49 8
160 -42 -16
161 -42 -16
162 -42 -16
163 -42 -16
164 -46 49
165 -46 49
166 -46 49
167 40 -22
168 40 -22
169 40 -22
170 40 -22
171 -6 -11
172 -6 -11
173 -6 -11
174 -6 -11
175 3 26
176 3 26
177 3 26
178 8 -11
179 8 -11
180 8 -11
181 8 -11
182 -49 -22
183 -49 -22
184 -49 -22
185 -49 -22
186 40 25
187 40 25
188 40 25
189 40 25
190 40 25
191 -27 4
192 -27 4
193 -27 4
194 -27 4
195 -27 4
196 29 -15
197 29 -15
198 29 -15
199 29 -15
200 19 0
201 19 0
202 19 0
203 19 0
204 0 22
205 0 22
206 0 22
207 0 22
208 24 -9
209 24 -9
210 24 -9
211 -46 19
212 -46 19
213 -46 19
214 -46 19
215 -46 19
216 -46 19
217 -46 19
218 -18 10
219 -18 10
220 -18 10
221 -18 10
222 -4 3
223 -4 3
224 -25 8
225 -25 8
226 -25 8
227 -25 8
228 -21 26
229 -21 26
230 -21 26
231 3 23
232 3 23
233 19 -26
234 -7 21
235 -7 21
236 -7 21
237 -7 21
238 28 34
239 28 34
240 28 34
241 28 34
242 25 -25
243 25 -25
244 25 -25
245 25 -25
246 25 -25
247 25 -25
248 32 50
249 32 50
250 32 50
251 32 50
252 32 50
253 -10 0
254 -10 0
255 -10 0
256 40 22
257 10 -10
258 10 -10
259 10 -10
260 -42 43
261 -42 43
262 -42 43
263 -42 43
264 -42 43
265 -42 43
266 -42 43
267 -20 23
268 -20 23
269 -20 23
270 -20 23
271 -20 23
272 9 15
273 9 15
274 9 15
275 -25 -4
276 -25 -3
277 -25 -3
278 -9 -25
279 -33 29
280 -33 29
281 -12 -27
282 -12 -27
283 -12 -27
284 -12 -27
285 -12 -27
286 7 23
287 7 23
288 7 23
289 7 23
290 7 23
291 48 -8
292 48 -8
293 48 -8
294 48 -8
295 48 -8
296 10 30
297 10 30
298 46 -41
299 46 -41
300 46 -41
301 46 -41
302 46 -41
303 46 -41
304 -15 32
305 -15 32
306 -42 20
307 -42 20
308 -42 20
309 -42 20
310 25 -24
311 25 -24
312 25 -24
313 25 -24
314 24 13
315 24 13
316 2 -17
317 2 -17
318 2 -17
319 2 -17
320 2 -17
321 -6 39
322 -6 39
323 -6 39
324 -6 39
325 -6 39
326 -32 -8
327 -32 -8
328 -32 -8
329 -32 -8
330 -32 -8
331 -32 -8
332 26 46
333 0 -5
334 0 -5
335 0 -5
336 0 -5
337 0 -5
338 0 -5
339 -38 44
340 -38 44
341 -38 44
342 24 8
343 24 8
344 -29 -15
345 -29 -15
346 -29 -15
347 -29 -15
348 -21 -26
349 -21 -26
350 -21 -26
351 -21 -26
352 -21 -26
353 12 39
354 12 39
355 12 39
356 12 39
357 12 39
358 46 23
359 46 23
360 46 23
361 46 23
362 46 23
363 6 26
364 6 26
365 6 26
366 27 -9
367 27 -9
368 27 -9
369 27 -9
370 45 -25
371 45 -25
372 8 46
373 8 46
374 8 46
375 8 46
376 -47 27
377 -47 27
378 -47 27
379 -47 27
DEMAND_SECTION
1 0
2 100
3 10
4 10
5 10
6 100
7 50
8 10
9 200
10 100
11 10
12 10
13 10
14 10
15 200
16 200
17 10
18 200
19 50
20 10
21 10
22 200
23 200
24 100
25 50
26 10
27 10
28 10
29 100
30 50
31 200
32 50
33 200
34 10
35 10
36 10
37 10
38 200
39 200
40 10
41 10
42 10
43 10
44 200
45 100
46 10
47 10
48 10
49 200
50 100
51 50
52 100
53 50
54 10
55 10
56 200
57 50
58 200
59 100
60 50
61 10
62 10
63 100
64 10
65 10
66 10
67 10
68 200
69 200
70 10
71 10
72 10
73 200
74 100
75 50
76 10
77 200
78 200
79 50
80 10
81 10
82 200
83 100
84 10
85 10
86 100
87 10
88 10
89 10
90 10
91 200
92 50
93 10
94 200
95 50
96 10
97 10
98 10
99 10
100 200
101 200
102 10
103 10
104 10
105 200
106 100
107 50
108 200
109 10
110 10
111 10
112 200
113 100
114 10
115 100
116 10
117 10
118 200
119 200
120 50
121 10
122 10
123 100
124 50
125 10
126 200
127 200
128 200
129 50
130 200
131 200
132 200
133 10
134 10
135 10
136 200
137 100
138 10
139 10
140 10
141 10
142 200
143 100
144 10
145 10
146 10
147 10
148 200
149 50
150 10
151 10
152 10
153 200
154 10
155 10
156 200
157 100
158 200
159 100
160 200
161 200
162 10
163 10
164 200
165 100
166 10
167 200
168 200
169 10
170 10
171 200
172 200
173 50
174 10
175 200
176 50
177 10
178 200
179 10
180 10
181 10
182 200
183 100
184 50
185 10
186 200
187 200
188 50
189 10
190 10
191 200
192 100
193 50
194 10
195 10
196 200
197 200
198 50
199 10
200 100
201 10
202 10
203 10
204 200
205 50
206 10
207 10
208 200
209 200
210 10
211 200
212 100
213 50
214 10
215 10
216 10
217 10
218 200
219 100
220 50
221 10
222 200
223 200
224 100
225 10
226 10
227 10
228 200
229 200
230 10
231 200
232 50
233 200
234 200
235 200
236 50
237 10
238 100
239 50
240 10
241 10
242 200
243 50
244 10
245 10
246 10
247 10
248 200
249 50
250 10
251 10
252 10
253 200
254 10
255 10
256 200
257 200
258 200
259 50
260 200
261 100
262 50
263 10
264 10
265 10
266 10
267 200
268 100
269 50
270 10
271 10
272 200
273 50
274 10
275 200
276 200
277 50
278 200
279 200
280 100
281 200
282 200
283 10
284 10
285 10
286 200
287 200
288 10
289 10
290 10
291 200
292 50
293 10
294 10
295 10
296 200
297 100
298 200
299 200
300 10
301 10
302 10
303 10
304 100
305 50
306 200
307 10
308 10
309 10
310 200
311 100
312 10
313 10
314 200
315 50
316 100
317 50
318 10
319 10
320 10
321 200
322 50
323 10
324 10
325 10
326 200
327 50
328 10
329 10
330 10
331 10
332 200
333 200
334 100
335 10
336 10
337 10
338 10
339 200
340 50
341 10
342 200
343 10
344 100
345 50
346 10
347 10
348 200
349 200
350 10
351 10
352 10
353 200
354 100
355 10
356 10
357 10
358 200
359 10
360 10
361 10
362 10
363 200
364 100
365 10
366 200
367 100
368 50
369 10
370 200
371 10
372 100
373 50
374 10
375 10
376 100
377 10
378 10
379 10
DEPOT_SECTION
1
-1
EOF