Normalized Data/p03_1_normalized_splitx10_0.sol
378 -2 1 4 3 21 155 156 183 182 184 181 -12 11 9 13 10 8 195 196 197 198 366 367 -29 28 167 166 294 293 292 290 291 33 36 35 34 199 201 202 200 -30 31 258 256 257 177 179 178 180 -32 56 55 137 138 139 135 140 136 342 341 -40 38 41 42 37 39 82 81 84 83 232 -50 49 48 368 365 209 207 208 -59 57 58 61 60 244 242 246 243 245 241 312 309 310 311 -62 66 64 65 63 125 126 130 129 -68 70 69 71 67 347 348 349 350 351 -75 74 73 307 305 308 306 213 214 211 212 375 378 377 376 278 279 -78 76 79 80 77 247 250 248 249 251 331 -88 85 86 89 87 300 299 298 297 301 302 370 369 5 6 7 169 168 -90 91 92 371 372 374 373 356 353 355 352 354 107 109 110 108 -98 95 72 228 229 227 267 269 268 266 270 -105 104 106 133 134 131 132 53 52 54 51 277 -113 112 111 357 360 358 359 361 19 17 20 18 237 240 239 238 -118 121 120 117 119 280 283 282 284 281 -127 128 152 153 154 222 221 -147 150 151 149 148 115 114 116 141 144 145 143 146 142 315 319 318 316 317 -172 173 170 171 335 332 337 336 333 334 -176 175 174 103 99 102 101 100 296 295 -188 187 185 186 189 255 314 313 -192 193 158 157 16 14 15 215 210 216 -194 191 190 325 330 328 327 329 274 275 276 -218 217 220 219 94 93 97 96 225 224 223 226 252 253 254 -231 230 204 205 203 206 233 236 234 235 -265 264 263 260 261 259 262 163 165 164 339 338 340 -273 271 272 288 287 289 285 286 364 362 363 -303 304 26 22 25 27 23 24 124 123 122 324 323 320 322 321 -326 162 161 159 160 46 47 45 44 43 343 346 345 344 0 





OBJ=
2706.164
BEST_KNOWN=
0.000